70
1 0 5
2 0 10
2 1 5
3 0 1
3 1 12
3 2 5
4 0 9
4 1 6
4 2 6
4 3 10
5 0 7
5 1 8
5 2 5
5 3 8
5 4 8
6 0 3
6 1 8
6 2 6
6 3 9
6 4 6
6 5 11
7 0 13
7 1 7
7 2 5
7 3 1
7 4 8
7 5 7
7 6 10
8 0 7
8 1 9
8 2 1
8 3 9
8 4 1
8 5 10
8 6 6
8 7 8
9 0 8
9 1 13
9 2 5
9 3 8
9 4 11
9 5 10
9 6 6
9 7 11
9 8 8
10 0 4
10 1 8
10 2 1
10 3 4
10 4 6
10 5 12
10 6 6
10 7 6
10 8 11
10 9 2
11 0 1
11 1 6
11 2 1
11 3 8
11 4 7
11 5 6
11 6 11
11 7 9
11 8 10
11 9 2
11 10 1
12 0 12
12 1 10
12 2 10
12 3 6
12 4 6
12 5 8
12 6 10
12 7 9
12 8 4
12 9 5
12 10 1
12 11 2
13 0 13
13 1 10
13 2 8
13 3 7
13 4 7
13 5 6
13 6 9
13 7 12
13 8 6
13 9 1
13 10 2
13 11 5
13 12 10
14 0 9
14 1 13
14 2 12
14 3 13
14 4 8
14 5 2
14 6 2
14 7 2
14 8 13
14 9 12
14 10 11
14 11 1
14 12 2
14 13 3
15 0 2
15 1 2
15 2 2
15 3 11
15 4 10
15 5 10
15 6 6
15 7 5
15 8 4
15 9 5
15 10 5
15 11 1
15 12 10
15 13 10
15 14 12
16 0 12
16 1 13
16 2 10
16 3 1
16 4 1
16 5 1
16 6 5
16 7 9
16 8 6
16 9 8
16 10 2
16 11 11
16 12 9
16 13 11
16 14 12
16 15 5
17 0 5
17 1 8
17 2 12
17 3 12
17 4 11
17 5 7
17 6 3
17 7 10
17 8 3
17 9 9
17 10 7
17 11 12
17 12 5
17 13 12
17 14 6
17 15 4
17 16 8
18 0 4
18 1 9
18 2 13
18 3 7
18 4 8
18 5 6
18 6 13
18 7 10
18 8 11
18 9 9
18 10 9
18 11 3
18 12 7
18 13 9
18 14 4
18 15 3
18 16 11
18 17 12
19 0 3
19 1 13
19 2 7
19 3 4
19 4 12
19 5 2
19 6 8
19 7 5
19 8 5
19 9 3
19 10 10
19 11 10
19 12 8
19 13 3
19 14 8
19 15 9
19 16 5
19 17 6
19 18 1
20 0 12
20 1 10
20 2 9
20 3 8
20 4 11
20 5 1
20 6 5
20 7 5
20 8 12
20 9 12
20 10 4
20 11 7
20 12 9
20 13 9
20 14 6
20 15 1
20 16 13
20 17 3
20 18 3
20 19 10
21 0 1
21 1 13
21 2 9
21 3 2
21 4 1
21 5 12
21 6 2
21 7 6
21 8 6
21 9 2
21 10 1
21 11 4
21 12 1
21 13 4
21 14 6
21 15 9
21 16 6
21 17 8
21 18 8
21 19 3
21 20 7
22 0 2
22 1 6
22 2 5
22 3 2
22 4 13
22 5 6
22 6 7
22 7 13
22 8 9
22 9 2
22 10 4
22 11 5
22 12 3
22 13 9
22 14 1
22 15 12
22 16 5
22 17 3
22 18 8
22 19 13
22 20 1
22 21 11
23 0 7
23 1 8
23 2 3
23 3 10
23 4 8
23 5 2
23 6 8
23 7 6
23 8 8
23 9 9
23 10 2
23 11 13
23 12 3
23 13 11
23 14 4
23 15 1
23 16 9
23 17 5
23 18 9
23 19 2
23 20 3
23 21 2
23 22 7
24 0 5
24 1 13
24 2 8
24 3 12
24 4 13
24 5 4
24 6 4
24 7 3
24 8 2
24 9 12
24 10 13
24 11 9
24 12 13
24 13 4
24 14 8
24 15 8
24 16 6
24 17 13
24 18 3
24 19 10
24 20 1
24 21 2
24 22 4
24 23 1
25 0 8
25 1 8
25 2 5
25 3 11
25 4 5
25 5 5
25 6 2
25 7 13
25 8 11
25 9 2
25 10 6
25 11 1
25 12 9
25 13 3
25 14 12
25 15 10
25 16 8
25 17 3
25 18 8
25 19 6
25 20 5
25 21 7
25 22 7
25 23 2
25 24 6
26 0 9
26 1 5
26 2 12
26 3 10
26 4 8
26 5 9
26 6 7
26 7 6
26 8 3
26 9 9
26 10 2
26 11 10
26 12 13
26 13 5
26 14 2
26 15 8
26 16 7
26 17 2
26 18 4
26 19 9
26 20 3
26 21 9
26 22 7
26 23 3
26 24 3
26 25 11
27 0 13
27 1 2
27 2 1
27 3 2
27 4 7
27 5 10
27 6 5
27 7 5
27 8 9
27 9 3
27 10 8
27 11 6
27 12 7
27 13 11
27 14 1
27 15 9
27 16 5
27 17 4
27 18 3
27 19 3
27 20 2
27 21 8
27 22 1
27 23 10
27 24 13
27 25 5
27 26 8
28 0 4
28 1 9
28 2 7
28 3 11
28 4 4
28 5 12
28 6 9
28 7 8
28 8 9
28 9 13
28 10 13
28 11 7
28 12 6
28 13 9
28 14 9
28 15 3
28 16 2
28 17 2
28 18 1
28 19 12
28 20 6
28 21 13
28 22 5
28 23 11
28 24 9
28 25 3
28 26 8
28 27 10
29 0 10
29 1 13
29 2 5
29 3 2
29 4 3
29 5 7
29 6 8
29 7 3
29 8 10
29 9 9
29 10 10
29 11 3
29 12 8
29 13 1
29 14 10
29 15 10
29 16 11
29 17 10
29 18 9
29 19 13
29 20 13
29 21 4
29 22 9
29 23 5
29 24 13
29 25 4
29 26 7
29 27 12
29 28 4
30 0 3
30 1 12
30 2 13
30 3 7
30 4 2
30 5 13
30 6 7
30 7 10
30 8 1
30 9 8
30 10 1
30 11 9
30 12 5
30 13 8
30 14 5
30 15 8
30 16 9
30 17 6
30 18 8
30 19 2
30 20 10
30 21 7
30 22 12
30 23 5
30 24 3
30 25 9
30 26 5
30 27 5
30 28 11
30 29 3
31 0 10
31 1 9
31 2 9
31 3 12
31 4 8
31 5 4
31 6 2
31 7 10
31 8 13
31 9 8
31 10 6
31 11 5
31 12 7
31 13 3
31 14 13
31 15 13
31 16 13
31 17 9
31 18 2
31 19 5
31 20 11
31 21 5
31 22 1
31 23 13
31 24 11
31 25 9
31 26 8
31 27 9
31 28 5
31 29 12
31 30 5
32 0 4
32 1 12
32 2 3
32 3 13
32 4 1
32 5 11
32 6 1
32 7 12
32 8 4
32 9 4
32 10 7
32 11 13
32 12 3
32 13 9
32 14 1
32 15 8
32 16 8
32 17 10
32 18 7
32 19 6
32 20 3
32 21 11
32 22 2
32 23 4
32 24 10
32 25 4
32 26 2
32 27 10
32 28 12
32 29 5
32 30 4
32 31 1
33 0 8
33 1 7
33 2 7
33 3 5
33 4 2
33 5 11
33 6 5
33 7 10
33 8 12
33 9 12
33 10 10
33 11 7
33 12 5
33 13 4
33 14 3
33 15 9
33 16 13
33 17 2
33 18 6
33 19 5
33 20 10
33 21 5
33 22 12
33 23 1
33 24 6
33 25 1
33 26 11
33 27 7
33 28 7
33 29 13
33 30 12
33 31 7
33 32 13
34 0 7
34 1 8
34 2 7
34 3 3
34 4 7
34 5 10
34 6 5
34 7 1
34 8 1
34 9 4
34 10 5
34 11 13
34 12 5
34 13 7
34 14 11
34 15 11
34 16 12
34 17 12
34 18 11
34 19 8
34 20 2
34 21 11
34 22 4
34 23 12
34 24 12
34 25 4
34 26 11
34 27 9
34 28 11
34 29 7
34 30 3
34 31 7
34 32 6
34 33 11
35 0 12
35 1 1
35 2 1
35 3 7
35 4 13
35 5 6
35 6 3
35 7 11
35 8 8
35 9 5
35 10 2
35 11 3
35 12 5
35 13 13
35 14 7
35 15 2
35 16 8
35 17 8
35 18 5
35 19 6
35 20 4
35 21 1
35 22 2
35 23 1
35 24 8
35 25 11
35 26 8
35 27 13
35 28 5
35 29 7
35 30 3
35 31 3
35 32 1
35 33 2
35 34 8
36 0 6
36 1 13
36 2 2
36 3 10
36 4 10
36 5 13
36 6 1
36 7 1
36 8 1
36 9 2
36 10 12
36 11 4
36 12 9
36 13 13
36 14 10
36 15 10
36 16 2
36 17 4
36 18 8
36 19 5
36 20 7
36 21 11
36 22 9
36 23 3
36 24 3
36 25 4
36 26 11
36 27 7
36 28 9
36 29 7
36 30 10
36 31 12
36 32 3
36 33 2
36 34 7
36 35 7
37 0 11
37 1 8
37 2 12
37 3 3
37 4 4
37 5 1
37 6 6
37 7 9
37 8 6
37 9 7
37 10 13
37 11 11
37 12 1
37 13 11
37 14 9
37 15 13
37 16 5
37 17 1
37 18 5
37 19 9
37 20 2
37 21 7
37 22 1
37 23 8
37 24 13
37 25 1
37 26 5
37 27 13
37 28 4
37 29 11
37 30 1
37 31 11
37 32 12
37 33 5
37 34 7
37 35 5
37 36 12
38 0 12
38 1 4
38 2 12
38 3 12
38 4 7
38 5 1
38 6 10
38 7 8
38 8 11
38 9 1
38 10 1
38 11 5
38 12 2
38 13 12
38 14 12
38 15 2
38 16 11
38 17 6
38 18 1
38 19 12
38 20 2
38 21 6
38 22 11
38 23 7
38 24 5
38 25 11
38 26 8
38 27 4
38 28 13
38 29 3
38 30 2
38 31 10
38 32 10
38 33 12
38 34 12
38 35 1
38 36 11
38 37 4
39 0 12
39 1 13
39 2 13
39 3 9
39 4 12
39 5 2
39 6 9
39 7 13
39 8 2
39 9 12
39 10 7
39 11 3
39 12 4
39 13 9
39 14 5
39 15 12
39 16 12
39 17 10
39 18 8
39 19 11
39 20 7
39 21 9
39 22 3
39 23 1
39 24 2
39 25 12
39 26 10
39 27 12
39 28 10
39 29 12
39 30 7
39 31 6
39 32 10
39 33 4
39 34 5
39 35 6
39 36 7
39 37 6
39 38 2
40 0 3
40 1 11
40 2 12
40 3 8
40 4 12
40 5 2
40 6 9
40 7 7
40 8 5
40 9 2
40 10 7
40 11 12
40 12 5
40 13 5
40 14 9
40 15 9
40 16 6
40 17 2
40 18 7
40 19 11
40 20 1
40 21 7
40 22 5
40 23 4
40 24 9
40 25 1
40 26 7
40 27 4
40 28 7
40 29 9
40 30 4
40 31 12
40 32 6
40 33 13
40 34 6
40 35 11
40 36 1
40 37 12
40 38 1
40 39 12
41 0 11
41 1 1
41 2 10
41 3 6
41 4 13
41 5 11
41 6 7
41 7 9
41 8 8
41 9 3
41 10 2
41 11 5
41 12 5
41 13 7
41 14 5
41 15 6
41 16 1
41 17 13
41 18 12
41 19 11
41 20 5
41 21 2
41 22 2
41 23 7
41 24 10
41 25 1
41 26 9
41 27 1
41 28 10
41 29 6
41 30 9
41 31 2
41 32 3
41 33 13
41 34 2
41 35 2
41 36 10
41 37 1
41 38 8
41 39 9
41 40 7
42 0 12
42 1 11
42 2 8
42 3 8
42 4 6
42 5 6
42 6 6
42 7 6
42 8 8
42 9 13
42 10 8
42 11 1
42 12 8
42 13 13
42 14 10
42 15 9
42 16 9
42 17 11
42 18 12
42 19 10
42 20 5
42 21 2
42 22 11
42 23 6
42 24 6
42 25 5
42 26 2
42 27 5
42 28 5
42 29 6
42 30 1
42 31 5
42 32 4
42 33 6
42 34 8
42 35 12
42 36 12
42 37 3
42 38 6
42 39 11
42 40 7
42 41 11
43 0 2
43 1 7
43 2 4
43 3 9
43 4 12
43 5 6
43 6 13
43 7 7
43 8 10
43 9 6
43 10 2
43 11 3
43 12 3
43 13 9
43 14 8
43 15 1
43 16 6
43 17 3
43 18 12
43 19 12
43 20 8
43 21 3
43 22 7
43 23 8
43 24 10
43 25 6
43 26 9
43 27 4
43 28 13
43 29 6
43 30 5
43 31 13
43 32 1
43 33 3
43 34 5
43 35 12
43 36 10
43 37 11
43 38 8
43 39 10
43 40 13
43 41 2
43 42 5
44 0 11
44 1 8
44 2 2
44 3 6
44 4 2
44 5 11
44 6 9
44 7 6
44 8 5
44 9 5
44 10 12
44 11 5
44 12 12
44 13 7
44 14 4
44 15 1
44 16 9
44 17 12
44 18 10
44 19 10
44 20 11
44 21 1
44 22 12
44 23 2
44 24 5
44 25 2
44 26 8
44 27 2
44 28 1
44 29 11
44 30 3
44 31 13
44 32 2
44 33 7
44 34 9
44 35 12
44 36 11
44 37 3
44 38 4
44 39 8
44 40 8
44 41 3
44 42 2
44 43 11
45 0 1
45 1 13
45 2 9
45 3 12
45 4 8
45 5 8
45 6 12
45 7 11
45 8 12
45 9 2
45 10 5
45 11 2
45 12 1
45 13 4
45 14 10
45 15 12
45 16 9
45 17 3
45 18 4
45 19 13
45 20 13
45 21 12
45 22 9
45 23 13
45 24 13
45 25 6
45 26 9
45 27 2
45 28 7
45 29 7
45 30 13
45 31 2
45 32 4
45 33 6
45 34 1
45 35 7
45 36 2
45 37 12
45 38 8
45 39 13
45 40 7
45 41 12
45 42 11
45 43 13
45 44 4
46 0 1
46 1 3
46 2 6
46 3 10
46 4 13
46 5 4
46 6 3
46 7 10
46 8 11
46 9 5
46 10 11
46 11 13
46 12 12
46 13 1
46 14 12
46 15 11
46 16 10
46 17 8
46 18 13
46 19 13
46 20 5
46 21 5
46 22 7
46 23 11
46 24 11
46 25 7
46 26 2
46 27 6
46 28 8
46 29 12
46 30 5
46 31 12
46 32 2
46 33 8
46 34 6
46 35 9
46 36 11
46 37 8
46 38 1
46 39 9
46 40 7
46 41 10
46 42 2
46 43 1
46 44 3
46 45 1
47 0 2
47 1 3
47 2 4
47 3 10
47 4 7
47 5 6
47 6 9
47 7 3
47 8 1
47 9 6
47 10 13
47 11 3
47 12 13
47 13 11
47 14 2
47 15 11
47 16 2
47 17 7
47 18 11
47 19 11
47 20 1
47 21 9
47 22 13
47 23 7
47 24 12
47 25 12
47 26 7
47 27 1
47 28 2
47 29 8
47 30 13
47 31 2
47 32 9
47 33 10
47 34 11
47 35 10
47 36 10
47 37 8
47 38 10
47 39 11
47 40 12
47 41 5
47 42 5
47 43 6
47 44 2
47 45 5
47 46 6
48 0 10
48 1 4
48 2 5
48 3 9
48 4 7
48 5 11
48 6 8
48 7 11
48 8 13
48 9 11
48 10 11
48 11 9
48 12 8
48 13 9
48 14 12
48 15 2
48 16 8
48 17 12
48 18 13
48 19 4
48 20 9
48 21 5
48 22 3
48 23 10
48 24 7
48 25 11
48 26 9
48 27 13
48 28 3
48 29 3
48 30 7
48 31 9
48 32 8
48 33 8
48 34 11
48 35 5
48 36 5
48 37 4
48 38 9
48 39 5
48 40 13
48 41 6
48 42 13
48 43 8
48 44 3
48 45 7
48 46 11
48 47 13
49 0 9
49 1 2
49 2 12
49 3 5
49 4 8
49 5 5
49 6 6
49 7 9
49 8 7
49 9 4
49 10 3
49 11 8
49 12 3
49 13 2
49 14 7
49 15 1
49 16 9
49 17 3
49 18 7
49 19 1
49 20 11
49 21 7
49 22 13
49 23 3
49 24 8
49 25 5
49 26 7
49 27 9
49 28 2
49 29 5
49 30 7
49 31 8
49 32 13
49 33 8
49 34 5
49 35 2
49 36 8
49 37 8
49 38 5
49 39 7
49 40 4
49 41 3
49 42 13
49 43 5
49 44 6
49 45 11
49 46 10
49 47 6
49 48 3
50 0 6
50 1 3
50 2 2
50 3 8
50 4 12
50 5 4
50 6 12
50 7 5
50 8 12
50 9 13
50 10 1
50 11 7
50 12 5
50 13 9
50 14 7
50 15 4
50 16 9
50 17 12
50 18 9
50 19 13
50 20 8
50 21 10
50 22 5
50 23 11
50 24 8
50 25 2
50 26 4
50 27 11
50 28 4
50 29 11
50 30 13
50 31 3
50 32 3
50 33 3
50 34 11
50 35 10
50 36 9
50 37 4
50 38 11
50 39 1
50 40 12
50 41 10
50 42 1
50 43 1
50 44 10
50 45 12
50 46 8
50 47 12
50 48 13
50 49 4
51 0 13
51 1 7
51 2 1
51 3 9
51 4 11
51 5 7
51 6 1
51 7 2
51 8 2
51 9 4
51 10 8
51 11 7
51 12 1
51 13 12
51 14 12
51 15 5
51 16 3
51 17 9
51 18 11
51 19 11
51 20 11
51 21 3
51 22 13
51 23 3
51 24 5
51 25 11
51 26 4
51 27 11
51 28 4
51 29 13
51 30 11
51 31 5
51 32 4
51 33 6
51 34 9
51 35 2
51 36 9
51 37 6
51 38 9
51 39 12
51 40 12
51 41 10
51 42 2
51 43 3
51 44 4
51 45 7
51 46 9
51 47 5
51 48 5
51 49 8
51 50 4
52 0 4
52 1 8
52 2 3
52 3 10
52 4 9
52 5 10
52 6 9
52 7 6
52 8 11
52 9 9
52 10 3
52 11 9
52 12 6
52 13 1
52 14 11
52 15 9
52 16 11
52 17 9
52 18 9
52 19 6
52 20 12
52 21 8
52 22 6
52 23 11
52 24 1
52 25 12
52 26 2
52 27 10
52 28 11
52 29 4
52 30 4
52 31 2
52 32 3
52 33 10
52 34 3
52 35 12
52 36 10
52 37 12
52 38 2
52 39 8
52 40 12
52 41 11
52 42 5
52 43 4
52 44 4
52 45 5
52 46 6
52 47 6
52 48 8
52 49 2
52 50 2
52 51 2
53 0 9
53 1 12
53 2 11
53 3 2
53 4 12
53 5 1
53 6 10
53 7 6
53 8 7
53 9 6
53 10 10
53 11 12
53 12 11
53 13 2
53 14 6
53 15 4
53 16 5
53 17 10
53 18 13
53 19 10
53 20 2
53 21 11
53 22 6
53 23 12
53 24 4
53 25 7
53 26 3
53 27 5
53 28 6
53 29 5
53 30 13
53 31 11
53 32 7
53 33 9
53 34 3
53 35 8
53 36 8
53 37 5
53 38 9
53 39 1
53 40 3
53 41 10
53 42 11
53 43 5
53 44 3
53 45 9
53 46 8
53 47 5
53 48 1
53 49 8
53 50 10
53 51 5
53 52 5
54 0 13
54 1 8
54 2 3
54 3 9
54 4 1
54 5 3
54 6 3
54 7 10
54 8 12
54 9 10
54 10 7
54 11 11
54 12 11
54 13 5
54 14 3
54 15 1
54 16 11
54 17 8
54 18 10
54 19 6
54 20 8
54 21 9
54 22 2
54 23 5
54 24 2
54 25 7
54 26 12
54 27 13
54 28 5
54 29 9
54 30 1
54 31 1
54 32 11
54 33 6
54 34 9
54 35 9
54 36 3
54 37 10
54 38 13
54 39 4
54 40 5
54 41 5
54 42 12
54 43 4
54 44 11
54 45 2
54 46 7
54 47 7
54 48 5
54 49 7
54 50 10
54 51 13
54 52 4
54 53 1
55 0 4
55 1 2
55 2 4
55 3 9
55 4 10
55 5 3
55 6 4
55 7 13
55 8 11
55 9 7
55 10 6
55 11 3
55 12 7
55 13 9
55 14 4
55 15 9
55 16 9
55 17 7
55 18 12
55 19 5
55 20 13
55 21 2
55 22 3
55 23 2
55 24 13
55 25 11
55 26 6
55 27 6
55 28 5
55 29 7
55 30 12
55 31 13
55 32 2
55 33 12
55 34 2
55 35 5
55 36 3
55 37 9
55 38 13
55 39 1
55 40 4
55 41 2
55 42 8
55 43 12
55 44 6
55 45 5
55 46 11
55 47 9
55 48 8
55 49 11
55 50 3
55 51 2
55 52 10
55 53 1
55 54 10
56 0 6
56 1 12
56 2 3
56 3 11
56 4 13
56 5 7
56 6 7
56 7 9
56 8 6
56 9 10
56 10 4
56 11 4
56 12 8
56 13 1
56 14 9
56 15 7
56 16 7
56 17 12
56 18 6
56 19 1
56 20 5
56 21 10
56 22 10
56 23 13
56 24 11
56 25 4
56 26 6
56 27 8
56 28 13
56 29 10
56 30 7
56 31 6
56 32 4
56 33 8
56 34 10
56 35 1
56 36 9
56 37 7
56 38 5
56 39 1
56 40 2
56 41 11
56 42 6
56 43 8
56 44 6
56 45 11
56 46 9
56 47 7
56 48 4
56 49 11
56 50 5
56 51 1
56 52 7
56 53 9
56 54 8
56 55 2
57 0 8
57 1 2
57 2 10
57 3 7
57 4 5
57 5 11
57 6 10
57 7 11
57 8 6
57 9 9
57 10 6
57 11 4
57 12 5
57 13 5
57 14 12
57 15 10
57 16 13
57 17 2
57 18 4
57 19 1
57 20 4
57 21 10
57 22 9
57 23 6
57 24 1
57 25 7
57 26 3
57 27 8
57 28 7
57 29 6
57 30 4
57 31 9
57 32 4
57 33 11
57 34 6
57 35 4
57 36 12
57 37 10
57 38 4
57 39 1
57 40 5
57 41 2
57 42 4
57 43 12
57 44 3
57 45 11
57 46 2
57 47 4
57 48 12
57 49 1
57 50 7
57 51 1
57 52 9
57 53 4
57 54 3
57 55 10
57 56 2
58 0 5
58 1 1
58 2 5
58 3 13
58 4 5
58 5 5
58 6 7
58 7 7
58 8 6
58 9 7
58 10 6
58 11 10
58 12 11
58 13 8
58 14 12
58 15 5
58 16 6
58 17 7
58 18 2
58 19 8
58 20 11
58 21 6
58 22 7
58 23 3
58 24 10
58 25 13
58 26 5
58 27 9
58 28 12
58 29 9
58 30 1
58 31 9
58 32 5
58 33 8
58 34 1
58 35 11
58 36 4
58 37 1
58 38 13
58 39 6
58 40 9
58 41 11
58 42 10
58 43 7
58 44 10
58 45 11
58 46 5
58 47 7
58 48 11
58 49 12
58 50 10
58 51 10
58 52 5
58 53 2
58 54 7
58 55 11
58 56 4
58 57 6
59 0 10
59 1 1
59 2 7
59 3 6
59 4 1
59 5 12
59 6 12
59 7 9
59 8 5
59 9 13
59 10 4
59 11 3
59 12 4
59 13 9
59 14 9
59 15 9
59 16 12
59 17 8
59 18 11
59 19 3
59 20 3
59 21 4
59 22 5
59 23 7
59 24 8
59 25 7
59 26 10
59 27 2
59 28 1
59 29 3
59 30 8
59 31 4
59 32 5
59 33 6
59 34 4
59 35 13
59 36 1
59 37 5
59 38 2
59 39 3
59 40 4
59 41 12
59 42 5
59 43 11
59 44 3
59 45 9
59 46 9
59 47 7
59 48 9
59 49 4
59 50 4
59 51 2
59 52 11
59 53 2
59 54 2
59 55 4
59 56 7
59 57 11
59 58 10
60 0 5
60 1 4
60 2 10
60 3 11
60 4 3
60 5 11
60 6 4
60 7 4
60 8 11
60 9 11
60 10 11
60 11 13
60 12 4
60 13 4
60 14 3
60 15 12
60 16 7
60 17 10
60 18 8
60 19 9
60 20 10
60 21 2
60 22 12
60 23 3
60 24 6
60 25 8
60 26 4
60 27 5
60 28 12
60 29 10
60 30 7
60 31 10
60 32 13
60 33 7
60 34 9
60 35 7
60 36 7
60 37 8
60 38 4
60 39 1
60 40 1
60 41 12
60 42 8
60 43 5
60 44 8
60 45 4
60 46 9
60 47 9
60 48 7
60 49 10
60 50 12
60 51 2
60 52 12
60 53 2
60 54 12
60 55 10
60 56 1
60 57 12
60 58 3
60 59 8
61 0 2
61 1 8
61 2 9
61 3 12
61 4 2
61 5 10
61 6 6
61 7 9
61 8 7
61 9 9
61 10 4
61 11 6
61 12 7
61 13 9
61 14 9
61 15 5
61 16 3
61 17 1
61 18 6
61 19 4
61 20 1
61 21 11
61 22 2
61 23 7
61 24 1
61 25 9
61 26 2
61 27 8
61 28 3
61 29 4
61 30 5
61 31 11
61 32 12
61 33 5
61 34 12
61 35 5
61 36 10
61 37 4
61 38 10
61 39 11
61 40 3
61 41 2
61 42 8
61 43 1
61 44 5
61 45 9
61 46 11
61 47 7
61 48 1
61 49 2
61 50 12
61 51 10
61 52 4
61 53 7
61 54 3
61 55 1
61 56 9
61 57 1
61 58 13
61 59 7
61 60 4
62 0 11
62 1 13
62 2 11
62 3 5
62 4 7
62 5 3
62 6 4
62 7 1
62 8 7
62 9 11
62 10 8
62 11 11
62 12 2
62 13 3
62 14 1
62 15 12
62 16 6
62 17 12
62 18 6
62 19 13
62 20 2
62 21 4
62 22 5
62 23 8
62 24 6
62 25 7
62 26 3
62 27 13
62 28 1
62 29 6
62 30 2
62 31 2
62 32 1
62 33 6
62 34 12
62 35 4
62 36 13
62 37 6
62 38 3
62 39 4
62 40 9
62 41 4
62 42 3
62 43 12
62 44 4
62 45 11
62 46 9
62 47 6
62 48 4
62 49 11
62 50 11
62 51 11
62 52 11
62 53 7
62 54 1
62 55 6
62 56 9
62 57 2
62 58 10
62 59 2
62 60 13
62 61 6
63 0 8
63 1 2
63 2 1
63 3 4
63 4 9
63 5 12
63 6 2
63 7 3
63 8 11
63 9 4
63 10 1
63 11 11
63 12 3
63 13 4
63 14 5
63 15 12
63 16 2
63 17 5
63 18 6
63 19 9
63 20 10
63 21 9
63 22 6
63 23 6
63 24 7
63 25 2
63 26 6
63 27 2
63 28 11
63 29 1
63 30 1
63 31 9
63 32 2
63 33 9
63 34 1
63 35 6
63 36 6
63 37 4
63 38 13
63 39 3
63 40 10
63 41 3
63 42 2
63 43 9
63 44 4
63 45 7
63 46 13
63 47 2
63 48 12
63 49 7
63 50 5
63 51 4
63 52 7
63 53 12
63 54 7
63 55 1
63 56 6
63 57 5
63 58 11
63 59 4
63 60 3
63 61 1
63 62 3
64 0 3
64 1 11
64 2 11
64 3 12
64 4 4
64 5 2
64 6 8
64 7 7
64 8 3
64 9 12
64 10 4
64 11 2
64 12 5
64 13 11
64 14 11
64 15 3
64 16 4
64 17 10
64 18 4
64 19 12
64 20 12
64 21 4
64 22 7
64 23 7
64 24 9
64 25 2
64 26 9
64 27 5
64 28 11
64 29 5
64 30 7
64 31 8
64 32 3
64 33 3
64 34 11
64 35 13
64 36 2
64 37 10
64 38 13
64 39 8
64 40 4
64 41 6
64 42 2
64 43 6
64 44 9
64 45 4
64 46 4
64 47 6
64 48 8
64 49 3
64 50 8
64 51 4
64 52 7
64 53 9
64 54 1
64 55 6
64 56 10
64 57 10
64 58 8
64 59 11
64 60 13
64 61 10
64 62 7
64 63 7
65 0 6
65 1 13
65 2 4
65 3 9
65 4 10
65 5 3
65 6 10
65 7 3
65 8 4
65 9 3
65 10 12
65 11 6
65 12 9
65 13 6
65 14 13
65 15 8
65 16 11
65 17 3
65 18 2
65 19 7
65 20 1
65 21 7
65 22 2
65 23 6
65 24 7
65 25 2
65 26 10
65 27 10
65 28 9
65 29 12
65 30 9
65 31 10
65 32 2
65 33 6
65 34 12
65 35 1
65 36 3
65 37 11
65 38 10
65 39 10
65 40 4
65 41 8
65 42 7
65 43 3
65 44 12
65 45 7
65 46 5
65 47 4
65 48 4
65 49 10
65 50 10
65 51 2
65 52 8
65 53 5
65 54 2
65 55 8
65 56 13
65 57 3
65 58 13
65 59 1
65 60 5
65 61 6
65 62 4
65 63 7
65 64 5
66 0 7
66 1 3
66 2 9
66 3 9
66 4 3
66 5 6
66 6 13
66 7 6
66 8 1
66 9 8
66 10 1
66 11 9
66 12 1
66 13 1
66 14 2
66 15 4
66 16 10
66 17 5
66 18 13
66 19 6
66 20 3
66 21 9
66 22 9
66 23 11
66 24 2
66 25 7
66 26 11
66 27 2
66 28 7
66 29 10
66 30 11
66 31 1
66 32 2
66 33 4
66 34 12
66 35 7
66 36 6
66 37 11
66 38 3
66 39 10
66 40 10
66 41 10
66 42 3
66 43 3
66 44 8
66 45 5
66 46 9
66 47 13
66 48 4
66 49 13
66 50 9
66 51 2
66 52 4
66 53 8
66 54 6
66 55 12
66 56 3
66 57 4
66 58 1
66 59 4
66 60 8
66 61 6
66 62 6
66 63 3
66 64 12
66 65 2
67 0 2
67 1 8
67 2 6
67 3 12
67 4 10
67 5 5
67 6 2
67 7 12
67 8 9
67 9 9
67 10 3
67 11 2
67 12 9
67 13 10
67 14 9
67 15 5
67 16 5
67 17 11
67 18 7
67 19 5
67 20 7
67 21 3
67 22 6
67 23 11
67 24 12
67 25 12
67 26 3
67 27 1
67 28 3
67 29 3
67 30 13
67 31 10
67 32 10
67 33 6
67 34 12
67 35 11
67 36 8
67 37 10
67 38 13
67 39 1
67 40 7
67 41 4
67 42 4
67 43 1
67 44 1
67 45 5
67 46 13
67 47 8
67 48 6
67 49 7
67 50 5
67 51 11
67 52 2
67 53 1
67 54 4
67 55 9
67 56 11
67 57 7
67 58 4
67 59 8
67 60 2
67 61 8
67 62 5
67 63 4
67 64 5
67 65 6
67 66 6
68 0 9
68 1 12
68 2 9
68 3 8
68 4 13
68 5 10
68 6 10
68 7 3
68 8 11
68 9 9
68 10 12
68 11 7
68 12 10
68 13 1
68 14 13
68 15 2
68 16 11
68 17 8
68 18 4
68 19 3
68 20 3
68 21 12
68 22 13
68 23 3
68 24 9
68 25 8
68 26 8
68 27 12
68 28 5
68 29 2
68 30 9
68 31 1
68 32 1
68 33 2
68 34 6
68 35 10
68 36 10
68 37 1
68 38 3
68 39 11
68 40 5
68 41 6
68 42 1
68 43 10
68 44 7
68 45 11
68 46 11
68 47 1
68 48 1
68 49 1
68 50 6
68 51 3
68 52 3
68 53 9
68 54 9
68 55 13
68 56 10
68 57 3
68 58 1
68 59 10
68 60 12
68 61 8
68 62 8
68 63 12
68 64 1
68 65 2
68 66 5
68 67 1
69 0 5
69 1 3
69 2 5
69 3 4
69 4 9
69 5 9
69 6 7
69 7 10
69 8 13
69 9 7
69 10 13
69 11 11
69 12 4
69 13 2
69 14 10
69 15 13
69 16 9
69 17 10
69 18 10
69 19 7
69 20 12
69 21 9
69 22 9
69 23 3
69 24 6
69 25 3
69 26 9
69 27 8
69 28 6
69 29 2
69 30 5
69 31 1
69 32 10
69 33 13
69 34 10
69 35 8
69 36 7
69 37 2
69 38 8
69 39 13
69 40 3
69 41 10
69 42 11
69 43 1
69 44 5
69 45 8
69 46 8
69 47 13
69 48 4
69 49 6
69 50 2
69 51 9
69 52 6
69 53 12
69 54 4
69 55 1
69 56 8
69 57 2
69 58 12
69 59 6
69 60 10
69 61 4
69 62 7
69 63 7
69 64 13
69 65 9
69 66 11
69 67 5
69 68 12
